problem_generation/data/GISP/train/er_n=60_m=1041_p=0.60_SET2_setparam=100.00_alpha=0.50_420.lp
maximize
OBJ:100x0 + 100x1 + 100x2 + 100x3 + 100x4 + 100x5 + 100x6 + 100x7 + 100x8 + 100x9 + 100x10 + 100x11 + 100x12 + 100x13 + 100x14 + 100x15 + 100x16 + 100x17 + 100x18 + 100x19 + 100x20 + 100x21 + 100x22 + 100x23 + 100x24 + 100x25 + 100x26 + 100x27 + 100x28 + 100x29 + 100x30 + 100x31 + 100x32 + 100x33 + 100x34 + 100x35 + 100x36 + 100x37 + 100x38 + 100x39 + 100x40 + 100x41 + 100x42 + 100x43 + 100x44 + 100x45 + 100x46 + 100x47 + 100x48 + 100x49 + 100x50 + 100x51 + 100x52 + 100x53 + 100x54 + 100x55 + 100x56 + 100x57 + 100x58 + 100x59 - y7_17 - y36_53 - y17_58 - y28_58 - y18_35 - y8_18 - y48_54 - y11_14 - y21_46 - y0_23 - y6_57 - y29_59 - y40_59 - y2_32 - y33_47 - y3_6 - y44_56 - y2_50 - y2_59 - y3_24 - y3_42 - y14_51 - y7_21 - y21_32 - y6_43 - y48_58 - y21_41 - y10_22 - y10_40 - y2_36 - y2_45 - y22_23 - y43_55 - y22_32 - y13_51 - y3_28 - y14_28 - y3_37 - y14_37 - y7_16 - y5_55 - y28_57 - y6_29 - y29_31 - y21_36 - y29_49 - y40_49 - y21_45 - y40_58 - y2_13 - y10_35 - y33_37 - y25_33 - y25_42 - y32_41 - y32_50 - y24_46 - y14_23 - y43_59 - y24_55 - y16_51 - y17_25 - y7_11 - y9_30 - y36_47 - y5_41 - y17_43 - y5_50 - y6_24 - y6_33 - y21_31 - y6_42 - y21_40 - y10_12 - y2_17 - y31_53 - y2_35 - y24_32 - y32_45 - y14_18 - y16_37 - y32_54 - y43_54 - y1_57 - y13_59 - y35_59 - y5_27 - y17_38 - y9_34 - y5_45 - y17_56 - y6_28 - y29_30 - y6_37 - y42_58 - y6_46 - y10_16 - y31_48 - y51_53 - y13_36 - y24_36 - y32_49 - y13_54 - y5_22 - y5_31 - y28_33 - y9_29 - y17_42 - y28_42 - y5_58 - y42_44 - y50_57 - y0_56 - y31_34 - y10_11 - y2_7 - y2_16 - y31_52 - y12_57 - y13_22 - y4_53 - y16_18 - y13_31 - y43_44 - y1_38 - y13_40 - y35_40 - y16_36 - y1_56 - y35_58 - y5_17 - y17_19 - y38_51 - y49_51 - y5_26 - y9_24 - y17_37 - y50_52 - y8_46 - y30_46 - y23_25 - y12_34 - y23_34 - y12_43 - y23_52 - y13_17 - y4_48 - y1_24 - y13_26 - y16_22 - y24_35 - y13_44 - y16_40 - y38_46 - y15_53 - y9_28 - y18_58 - y27_45 - y19_41 - y42_52 - y19_59 - y0_55 - y31_33 - y39_46 - y23_38 - y31_51 - y4_34 - y23_56 - y53_57 - y4_52 - y45_53 - y16_35 - y1_46 - y5_7 - y9_14 - y15_48 - y38_50 - y26_57 - y18_53 - y8_27 - y19_27 - y8_36 - y11_32 - y8_45 - y42_47 - y11_50 - y0_59 - y23_24 - y20_37 - y4_20 - y12_42 - y1_5 - y23_42 - y1_23 - y24_25 - y1_32 - y3_51 - y15_34 - y26_34 - y26_43 - y38_45 - y11_27 - y8_40 - y0_36 - y19_49 - y30_49 - y11_45 - y4_6 - y52_55 - y1_9 - y34_43 - y53_56 - y22_50 - y34_52 - y45_52 - y3_46 - y37_48 - y5_6 - y38_40 - y38_49 - y26_56 - y0_4 - y8_17 - y0_13 - y27_39 - y29_58 - y19_35 - y19_44 - y0_40 - y11_49 - y33_46 - y44_46 - y12_23 - y10_53 - y33_55 - y2_58 - y22_36 - y34_38 - y3_41 - y37_43 - y45_56 - y14_50 - y37_52 - y14_59 - y7_20 - y18_20 - y7_29 - y18_29 - y26_42 - y15_51 - y19_21 - y40_53 - y21_58 - y0_35 - y33_41 - y4_14 - y33_50 - y44_59 - y22_31 - y14_27 - y3_45 - y37_47 - y14_54 - y18_24 - y18_33 - y26_46 - y7_42 - y0_3 - y8_16 - y48_52 - y29_48 - y29_57 - y11_30 - y4_9 - y10_43 - y25_41 - y10_52 - y34_37 - y15_23 - y36_55 - y15_32 - y17_51 - y9_56 - y29_34 - y8_11 - y29_43 - y40_43 - y29_52 - y21_57 - y10_29 - y10_47 - y33_49 - y44_49 - y3_8 - y10_56 - y3_17 - y13_58 - y3_35 - y15_18 - y7_14 - y7_23 - y18_23 - y5_53 - y6_36 - y6_45 - y29_47 - y21_43 - y29_56 - y21_52 - y54_58 - y10_33 - y33_44 - y2_38 - y10_51 - y2_47 - y3_12 - y43_48 - y3_21 - y14_21 - y43_57 - y13_53 - y24_53 - y3_30 - y28_32 - y17_41 - y17_50 - y28_50 - y29_33 - y29_42 - y40_51 - y6_58 - y2_6 - y10_19 - y25_26 - y32_34 - y13_48 - y24_48 - y16_44 - y24_57 - y9_23 - y17_36 - y28_45 - y36_58 - y28_54 - y6_26 - y21_24 - y6_35 - y10_14 - y39_59 - y31_55 - y12_51 - y13_43 - y35_43 - y35_52 - y9_18 - y36_44 - y9_45 - y5_56 - y58_59 - y50_55 - y21_28 - y20_41 - y2_14 - y20_50 - y2_23 - y20_59 - y13_29 - y16_25 - y1_45 - y13_47 - y16_43 - y1_54 - y46_53 - y5_24 - y9_22 - y28_35 - y6_7 - y5_51 - y21_23 - y50_59 - y19_53 - y30_53 - y0_49 - y0_58 - y11_58 - y20_36 - y39_49 - y12_32 - y31_45 - y39_58 - y12_41 - y12_59 - y32_46 - y1_40 - y13_42 - y35_51 - y16_47 - y38_44 - y46_57 - y49_53 - y5_28 - y28_30 - y5_37 - y9_35 - y19_39 - y19_48 - y42_50 - y11_44 - y42_59 - y20_22 - y39_44 - y23_27 - y2_4 - y20_40 - y12_36 - y31_49 - y53_55 - y4_50 - y1_26 - y1_35 - y24_37 - y38_48 - y5_23 - y15_55 - y26_55 - y49_57 - y27_29 - y8_25 - y8_34 - y27_47 - y8_43 - y19_43 - y42_45 - y0_39 - y30_52 - y42_54 - y0_48 - y12_22 - y4_18 - y12_31 - y4_27 - y23_49 - y13_14 - y4_45 - y1_21 - y4_54 - y16_19 - y26_50 - y49_52 - y8_20 - y27_42 - y19_38 - y0_34 - y11_43 - y20_21 - y11_52 - y52_53 - y20_30 - y4_40 - y53_54 - y45_50 - y45_59 - y3_53 - y14_53 - y46_51 - y18_32 - y26_45 - y38_47 - y7_41 - y49_56 - y18_50 - y7_59 - y0_20 - y11_29 - y19_42 - y30_51 - y0_47 - y41_48 - y20_25 - y4_8 - y41_57 - y25_58 - y1_11 - y34_45 - y37_41 - y22_52 - y34_54 - y45_54 - y14_48 - y37_59 - y15_22 - y15_31 - y26_31 - y26_40 - y18_36 - y7_45 - y15_58 - y26_58 - y48_55 - y8_28 - y11_24 - y19_37 - y21_56 - y44_48 - y25_44 - y10_55 - y33_57 - y44_57 - y2_51 - y22_29 - y22_38 - y14_34 - y22_47 - y45_49 - y3_52 - y14_52 - y7_13 - y7_22 - y26_44 - y7_40 - y18_40 - y7_49 - y18_49 - y0_10 - y29_46 - y8_23 - y48_59 - y33_34 - y41_47 - y10_41 - y33_43 - y41_56 - y44_52 - y2_55 - y3_20 - y22_33 - y22_42 - y3_38 - y14_38 - y37_49
 Subject to
C1: x0+x1 <=1 
C2: x0+x3-y0_3 <=1 
C3: x0+x4-y0_4 <=1 
C4: x0+x7 <=1 
C5: x0+x8 <=1 
C6: x0+x10-y0_10 <=1 
C7: x0+x12 <=1 
C8: x0+x13-y0_13 <=1 
C9: x0+x14 <=1 
C10: x0+x15 <=1 
C11: x0+x17 <=1 
C12: x0+x18 <=1 
C13: x0+x19 <=1 
C14: x0+x20-y0_20 <=1 
C15: x0+x21 <=1 
C16: x0+x23-y0_23 <=1 
C17: x0+x24 <=1 
C18: x0+x28 <=1 
C19: x0+x33 <=1 
C20: x0+x34-y0_34 <=1 
C21: x0+x35-y0_35 <=1 
C22: x0+x36-y0_36 <=1 
C23: x0+x39-y0_39 <=1 
C24: x0+x40-y0_40 <=1 
C25: x0+x42 <=1 
C26: x0+x44 <=1 
C27: x0+x47-y0_47 <=1 
C28: x0+x48-y0_48 <=1 
C29: x0+x49-y0_49 <=1 
C30: x0+x50 <=1 
C31: x0+x51 <=1 
C32: x0+x52 <=1 
C33: x0+x55-y0_55 <=1 
C34: x0+x56-y0_56 <=1 
C35: x0+x58-y0_58 <=1 
C36: x0+x59-y0_59 <=1 
C37: x1+x5-y1_5 <=1 
C38: x1+x9-y1_9 <=1 
C39: x1+x10 <=1 
C40: x1+x11-y1_11 <=1 
C41: x1+x13 <=1 
C42: x1+x15 <=1 
C43: x1+x16 <=1 
C44: x1+x21-y1_21 <=1 
C45: x1+x23-y1_23 <=1 
C46: x1+x24-y1_24 <=1 
C47: x1+x26-y1_26 <=1 
C48: x1+x27 <=1 
C49: x1+x29 <=1 
C50: x1+x31 <=1 
C51: x1+x32-y1_32 <=1 
C52: x1+x35-y1_35 <=1 
C53: x1+x37 <=1 
C54: x1+x38-y1_38 <=1 
C55: x1+x40-y1_40 <=1 
C56: x1+x44 <=1 
C57: x1+x45-y1_45 <=1 
C58: x1+x46-y1_46 <=1 
C59: x1+x48 <=1 
C60: x1+x52 <=1 
C61: x1+x53 <=1 
C62: x1+x54-y1_54 <=1 
C63: x1+x56-y1_56 <=1 
C64: x1+x57-y1_57 <=1 
C65: x1+x58 <=1 
C66: x2+x3 <=1 
C67: x2+x4-y2_4 <=1 
C68: x2+x6-y2_6 <=1 
C69: x2+x7-y2_7 <=1 
C70: x2+x8 <=1 
C71: x2+x10 <=1 
C72: x2+x13-y2_13 <=1 
C73: x2+x14-y2_14 <=1 
C74: x2+x15 <=1 
C75: x2+x16-y2_16 <=1 
C76: x2+x17-y2_17 <=1 
C77: x2+x18 <=1 
C78: x2+x20 <=1 
C79: x2+x23-y2_23 <=1 
C80: x2+x25 <=1 
C81: x2+x30 <=1 
C82: x2+x32-y2_32 <=1 
C83: x2+x35-y2_35 <=1 
C84: x2+x36-y2_36 <=1 
C85: x2+x38-y2_38 <=1 
C86: x2+x39 <=1 
C87: x2+x40 <=1 
C88: x2+x43 <=1 
C89: x2+x45-y2_45 <=1 
C90: x2+x47-y2_47 <=1 
C91: x2+x50-y2_50 <=1 
C92: x2+x51-y2_51 <=1 
C93: x2+x54 <=1 
C94: x2+x55-y2_55 <=1 
C95: x2+x56 <=1 
C96: x2+x58-y2_58 <=1 
C97: x2+x59-y2_59 <=1 
C98: x3+x6-y3_6 <=1 
C99: x3+x8-y3_8 <=1 
C100: x3+x10 <=1 
C101: x3+x12-y3_12 <=1 
C102: x3+x14 <=1 
C103: x3+x16 <=1 
C104: x3+x17-y3_17 <=1 
C105: x3+x19 <=1 
C106: x3+x20-y3_20 <=1 
C107: x3+x21-y3_21 <=1 
C108: x3+x24-y3_24 <=1 
C109: x3+x26 <=1 
C110: x3+x28-y3_28 <=1 
C111: x3+x29 <=1 
C112: x3+x30-y3_30 <=1 
C113: x3+x31 <=1 
C114: x3+x33 <=1 
C115: x3+x35-y3_35 <=1 
C116: x3+x36 <=1 
C117: x3+x37-y3_37 <=1 
C118: x3+x38-y3_38 <=1 
C119: x3+x39 <=1 
C120: x3+x41-y3_41 <=1 
C121: x3+x42-y3_42 <=1 
C122: x3+x45-y3_45 <=1 
C123: x3+x46-y3_46 <=1 
C124: x3+x47 <=1 
C125: x3+x51-y3_51 <=1 
C126: x3+x52-y3_52 <=1 
C127: x3+x53-y3_53 <=1 
C128: x3+x54 <=1 
C129: x3+x58 <=1 
C130: x4+x6-y4_6 <=1 
C131: x4+x7 <=1 
C132: x4+x8-y4_8 <=1 
C133: x4+x9-y4_9 <=1 
C134: x4+x10 <=1 
C135: x4+x12 <=1 
C136: x4+x13 <=1 
C137: x4+x14-y4_14 <=1 
C138: x4+x17 <=1 
C139: x4+x18-y4_18 <=1 
C140: x4+x19 <=1 
C141: x4+x20-y4_20 <=1 
C142: x4+x24 <=1 
C143: x4+x25 <=1 
C144: x4+x27-y4_27 <=1 
C145: x4+x30 <=1 
C146: x4+x31 <=1 
C147: x4+x32 <=1 
C148: x4+x34-y4_34 <=1 
C149: x4+x35 <=1 
C150: x4+x40-y4_40 <=1 
C151: x4+x45-y4_45 <=1 
C152: x4+x48-y4_48 <=1 
C153: x4+x50-y4_50 <=1 
C154: x4+x52-y4_52 <=1 
C155: x4+x53-y4_53 <=1 
C156: x4+x54-y4_54 <=1 
C157: x4+x56 <=1 
C158: x4+x57 <=1 
C159: x4+x58 <=1 
C160: x4+x59 <=1 
C161: x5+x6-y5_6 <=1 
C162: x5+x7-y5_7 <=1 
C163: x5+x8 <=1 
C164: x5+x9 <=1 
C165: x5+x10 <=1 
C166: x5+x11 <=1 
C167: x5+x17-y5_17 <=1 
C168: x5+x19 <=1 
C169: x5+x20 <=1 
C170: x5+x21 <=1 
C171: x5+x22-y5_22 <=1 
C172: x5+x23-y5_23 <=1 
C173: x5+x24-y5_24 <=1 
C174: x5+x25 <=1 
C175: x5+x26-y5_26 <=1 
C176: x5+x27-y5_27 <=1 
C177: x5+x28-y5_28 <=1 
C178: x5+x30 <=1 
C179: x5+x31-y5_31 <=1 
C180: x5+x33 <=1 
C181: x5+x35 <=1 
C182: x5+x36 <=1 
C183: x5+x37-y5_37 <=1 
C184: x5+x40 <=1 
C185: x5+x41-y5_41 <=1 
C186: x5+x43 <=1 
C187: x5+x45-y5_45 <=1 
C188: x5+x48 <=1 
C189: x5+x49 <=1 
C190: x5+x50-y5_50 <=1 
C191: x5+x51-y5_51 <=1 
C192: x5+x53-y5_53 <=1 
C193: x5+x54 <=1 
C194: x5+x55-y5_55 <=1 
C195: x5+x56-y5_56 <=1 
C196: x5+x57 <=1 
C197: x5+x58-y5_58 <=1 
C198: x6+x7-y6_7 <=1 
C199: x6+x10 <=1 
C200: x6+x11 <=1 
C201: x6+x13 <=1 
C202: x6+x14 <=1 
C203: x6+x18 <=1 
C204: x6+x19 <=1 
C205: x6+x24-y6_24 <=1 
C206: x6+x26-y6_26 <=1 
C207: x6+x28-y6_28 <=1 
C208: x6+x29-y6_29 <=1 
C209: x6+x31 <=1 
C210: x6+x32 <=1 
C211: x6+x33-y6_33 <=1 
C212: x6+x34 <=1 
C213: x6+x35-y6_35 <=1 
C214: x6+x36-y6_36 <=1 
C215: x6+x37-y6_37 <=1 
C216: x6+x41 <=1 
C217: x6+x42-y6_42 <=1 
C218: x6+x43-y6_43 <=1 
C219: x6+x45-y6_45 <=1 
C220: x6+x46-y6_46 <=1 
C221: x6+x48 <=1 
C222: x6+x49 <=1 
C223: x6+x57-y6_57 <=1 
C224: x6+x58-y6_58 <=1 
C225: x7+x11-y7_11 <=1 
C226: x7+x13-y7_13 <=1 
C227: x7+x14-y7_14 <=1 
C228: x7+x16-y7_16 <=1 
C229: x7+x17-y7_17 <=1 
C230: x7+x20-y7_20 <=1 
C231: x7+x21-y7_21 <=1 
C232: x7+x22-y7_22 <=1 
C233: x7+x23-y7_23 <=1 
C234: x7+x25 <=1 
C235: x7+x26 <=1 
C236: x7+x28 <=1 
C237: x7+x29-y7_29 <=1 
C238: x7+x34 <=1 
C239: x7+x35 <=1 
C240: x7+x40-y7_40 <=1 
C241: x7+x41-y7_41 <=1 
C242: x7+x42-y7_42 <=1 
C243: x7+x44 <=1 
C244: x7+x45-y7_45 <=1 
C245: x7+x47 <=1 
C246: x7+x48 <=1 
C247: x7+x49-y7_49 <=1 
C248: x7+x50 <=1 
C249: x7+x51 <=1 
C250: x7+x52 <=1 
C251: x7+x53 <=1 
C252: x7+x58 <=1 
C253: x7+x59-y7_59 <=1 
C254: x8+x10 <=1 
C255: x8+x11-y8_11 <=1 
C256: x8+x12 <=1 
C257: x8+x13 <=1 
C258: x8+x14 <=1 
C259: x8+x16-y8_16 <=1 
C260: x8+x17-y8_17 <=1 
C261: x8+x18-y8_18 <=1 
C262: x8+x20-y8_20 <=1 
C263: x8+x23-y8_23 <=1 
C264: x8+x24 <=1 
C265: x8+x25-y8_25 <=1 
C266: x8+x27-y8_27 <=1 
C267: x8+x28-y8_28 <=1 
C268: x8+x31 <=1 
C269: x8+x34-y8_34 <=1 
C270: x8+x35 <=1 
C271: x8+x36-y8_36 <=1 
C272: x8+x38 <=1 
C273: x8+x40-y8_40 <=1 
C274: x8+x41 <=1 
C275: x8+x43-y8_43 <=1 
C276: x8+x45-y8_45 <=1 
C277: x8+x46-y8_46 <=1 
C278: x8+x48 <=1 
C279: x8+x55 <=1 
C280: x8+x56 <=1 
C281: x8+x59 <=1 
C282: x9+x12 <=1 
C283: x9+x14-y9_14 <=1 
C284: x9+x18-y9_18 <=1 
C285: x9+x22-y9_22 <=1 
C286: x9+x23-y9_23 <=1 
C287: x9+x24-y9_24 <=1 
C288: x9+x25 <=1 
C289: x9+x28-y9_28 <=1 
C290: x9+x29-y9_29 <=1 
C291: x9+x30-y9_30 <=1 
C292: x9+x31 <=1 
C293: x9+x33 <=1 
C294: x9+x34-y9_34 <=1 
C295: x9+x35-y9_35 <=1 
C296: x9+x38 <=1 
C297: x9+x42 <=1 
C298: x9+x44 <=1 
C299: x9+x45-y9_45 <=1 
C300: x9+x46 <=1 
C301: x9+x48 <=1 
C302: x9+x52 <=1 
C303: x9+x54 <=1 
C304: x9+x55 <=1 
C305: x9+x56-y9_56 <=1 
C306: x9+x57 <=1 
C307: x10+x11-y10_11 <=1 
C308: x10+x12-y10_12 <=1 
C309: x10+x14-y10_14 <=1 
C310: x10+x15 <=1 
C311: x10+x16-y10_16 <=1 
C312: x10+x17 <=1 
C313: x10+x19-y10_19 <=1 
C314: x10+x22-y10_22 <=1 
C315: x10+x29-y10_29 <=1 
C316: x10+x30 <=1 
C317: x10+x32 <=1 
C318: x10+x33-y10_33 <=1 
C319: x10+x34 <=1 
C320: x10+x35-y10_35 <=1 
C321: x10+x36 <=1 
C322: x10+x39 <=1 
C323: x10+x40-y10_40 <=1 
C324: x10+x41-y10_41 <=1 
C325: x10+x43-y10_43 <=1 
C326: x10+x44 <=1 
C327: x10+x45 <=1 
C328: x10+x46 <=1 
C329: x10+x47-y10_47 <=1 
C330: x10+x48 <=1 
C331: x10+x51-y10_51 <=1 
C332: x10+x52-y10_52 <=1 
C333: x10+x53-y10_53 <=1 
C334: x10+x55-y10_55 <=1 
C335: x10+x56-y10_56 <=1 
C336: x10+x58 <=1 
C337: x10+x59 <=1 
C338: x11+x12 <=1 
C339: x11+x14-y11_14 <=1 
C340: x11+x15 <=1 
C341: x11+x16 <=1 
C342: x11+x19 <=1 
C343: x11+x24-y11_24 <=1 
C344: x11+x25 <=1 
C345: x11+x27-y11_27 <=1 
C346: x11+x28 <=1 
C347: x11+x29-y11_29 <=1 
C348: x11+x30-y11_30 <=1 
C349: x11+x32-y11_32 <=1 
C350: x11+x35 <=1 
C351: x11+x39 <=1 
C352: x11+x40 <=1 
C353: x11+x43-y11_43 <=1 
C354: x11+x44-y11_44 <=1 
C355: x11+x45-y11_45 <=1 
C356: x11+x46 <=1 
C357: x11+x48 <=1 
C358: x11+x49-y11_49 <=1 
C359: x11+x50-y11_50 <=1 
C360: x11+x51 <=1 
C361: x11+x52-y11_52 <=1 
C362: x11+x58-y11_58 <=1 
C363: x12+x14 <=1 
C364: x12+x15 <=1 
C365: x12+x16 <=1 
C366: x12+x17 <=1 
C367: x12+x20 <=1 
C368: x12+x21 <=1 
C369: x12+x22-y12_22 <=1 
C370: x12+x23-y12_23 <=1 
C371: x12+x26 <=1 
C372: x12+x27 <=1 
C373: x12+x28 <=1 
C374: x12+x29 <=1 
C375: x12+x30 <=1 
C376: x12+x31-y12_31 <=1 
C377: x12+x32-y12_32 <=1 
C378: x12+x33 <=1 
C379: x12+x34-y12_34 <=1 
C380: x12+x35 <=1 
C381: x12+x36-y12_36 <=1 
C382: x12+x37 <=1 
C383: x12+x38 <=1 
C384: x12+x39 <=1 
C385: x12+x41-y12_41 <=1 
C386: x12+x42-y12_42 <=1 
C387: x12+x43-y12_43 <=1 
C388: x12+x49 <=1 
C389: x12+x51-y12_51 <=1 
C390: x12+x53 <=1 
C391: x12+x57-y12_57 <=1 
C392: x12+x58 <=1 
C393: x12+x59-y12_59 <=1 
C394: x13+x14-y13_14 <=1 
C395: x13+x15 <=1 
C396: x13+x17-y13_17 <=1 
C397: x13+x18 <=1 
C398: x13+x20 <=1 
C399: x13+x22-y13_22 <=1 
C400: x13+x26-y13_26 <=1 
C401: x13+x29-y13_29 <=1 
C402: x13+x30 <=1 
C403: x13+x31-y13_31 <=1 
C404: x13+x32 <=1 
C405: x13+x35 <=1 
C406: x13+x36-y13_36 <=1 
C407: x13+x37 <=1 
C408: x13+x38 <=1 
C409: x13+x40-y13_40 <=1 
C410: x13+x41 <=1 
C411: x13+x42-y13_42 <=1 
C412: x13+x43-y13_43 <=1 
C413: x13+x44-y13_44 <=1 
C414: x13+x45 <=1 
C415: x13+x46 <=1 
C416: x13+x47-y13_47 <=1 
C417: x13+x48-y13_48 <=1 
C418: x13+x49 <=1 
C419: x13+x50 <=1 
C420: x13+x51-y13_51 <=1 
C421: x13+x53-y13_53 <=1 
C422: x13+x54-y13_54 <=1 
C423: x13+x56 <=1 
C424: x13+x58-y13_58 <=1 
C425: x13+x59-y13_59 <=1 
C426: x14+x15 <=1 
C427: x14+x17 <=1 
C428: x14+x18-y14_18 <=1 
C429: x14+x19 <=1 
C430: x14+x21-y14_21 <=1 
C431: x14+x23-y14_23 <=1 
C432: x14+x24 <=1 
C433: x14+x27-y14_27 <=1 
C434: x14+x28-y14_28 <=1 
C435: x14+x29 <=1 
C436: x14+x33 <=1 
C437: x14+x34-y14_34 <=1 
C438: x14+x37-y14_37 <=1 
C439: x14+x38-y14_38 <=1 
C440: x14+x42 <=1 
C441: x14+x48-y14_48 <=1 
C442: x14+x49 <=1 
C443: x14+x50-y14_50 <=1 
C444: x14+x51-y14_51 <=1 
C445: x14+x52-y14_52 <=1 
C446: x14+x53-y14_53 <=1 
C447: x14+x54-y14_54 <=1 
C448: x14+x56 <=1 
C449: x14+x58 <=1 
C450: x14+x59-y14_59 <=1 
C451: x15+x16 <=1 
C452: x15+x17 <=1 
C453: x15+x18-y15_18 <=1 
C454: x15+x19 <=1 
C455: x15+x22-y15_22 <=1 
C456: x15+x23-y15_23 <=1 
C457: x15+x24 <=1 
C458: x15+x26 <=1 
C459: x15+x27 <=1 
C460: x15+x29 <=1 
C461: x15+x31-y15_31 <=1 
C462: x15+x32-y15_32 <=1 
C463: x15+x34-y15_34 <=1 
C464: x15+x38 <=1 
C465: x15+x39 <=1 
C466: x15+x43 <=1 
C467: x15+x44 <=1 
C468: x15+x45 <=1 
C469: x15+x46 <=1 
C470: x15+x47 <=1 
C471: x15+x48-y15_48 <=1 
C472: x15+x50 <=1 
C473: x15+x51-y15_51 <=1 
C474: x15+x52 <=1 
C475: x15+x53-y15_53 <=1 
C476: x15+x55-y15_55 <=1 
C477: x15+x57 <=1 
C478: x15+x58-y15_58 <=1 
C479: x15+x59 <=1 
C480: x16+x18-y16_18 <=1 
C481: x16+x19-y16_19 <=1 
C482: x16+x22-y16_22 <=1 
C483: x16+x23 <=1 
C484: x16+x24 <=1 
C485: x16+x25-y16_25 <=1 
C486: x16+x29 <=1 
C487: x16+x31 <=1 
C488: x16+x33 <=1 
C489: x16+x35-y16_35 <=1 
C490: x16+x36-y16_36 <=1 
C491: x16+x37-y16_37 <=1 
C492: x16+x40-y16_40 <=1 
C493: x16+x42 <=1 
C494: x16+x43-y16_43 <=1 
C495: x16+x44-y16_44 <=1 
C496: x16+x45 <=1 
C497: x16+x46 <=1 
C498: x16+x47-y16_47 <=1 
C499: x16+x48 <=1 
C500: x16+x51-y16_51 <=1 
C501: x16+x52 <=1 
C502: x16+x54 <=1 
C503: x16+x57 <=1 
C504: x16+x59 <=1 
C505: x17+x18 <=1 
C506: x17+x19-y17_19 <=1 
C507: x17+x20 <=1 
C508: x17+x21 <=1 
C509: x17+x24 <=1 
C510: x17+x25-y17_25 <=1 
C511: x17+x27 <=1 
C512: x17+x28 <=1 
C513: x17+x34 <=1 
C514: x17+x36-y17_36 <=1 
C515: x17+x37-y17_37 <=1 
C516: x17+x38-y17_38 <=1 
C517: x17+x39 <=1 
C518: x17+x40 <=1 
C519: x17+x41-y17_41 <=1 
C520: x17+x42-y17_42 <=1 
C521: x17+x43-y17_43 <=1 
C522: x17+x45 <=1 
C523: x17+x47 <=1 
C524: x17+x48 <=1 
C525: x17+x49 <=1 
C526: x17+x50-y17_50 <=1 
C527: x17+x51-y17_51 <=1 
C528: x17+x52 <=1 
C529: x17+x53 <=1 
C530: x17+x55 <=1 
C531: x17+x56-y17_56 <=1 
C532: x17+x58-y17_58 <=1 
C533: x18+x19 <=1 
C534: x18+x20-y18_20 <=1 
C535: x18+x22 <=1 
C536: x18+x23-y18_23 <=1 
C537: x18+x24-y18_24 <=1 
C538: x18+x26 <=1 
C539: x18+x27 <=1 
C540: x18+x28 <=1 
C541: x18+x29-y18_29 <=1 
C542: x18+x32-y18_32 <=1 
C543: x18+x33-y18_33 <=1 
C544: x18+x35-y18_35 <=1 
C545: x18+x36-y18_36 <=1 
C546: x18+x38 <=1 
C547: x18+x40-y18_40 <=1 
C548: x18+x41 <=1 
C549: x18+x42 <=1 
C550: x18+x49-y18_49 <=1 
C551: x18+x50-y18_50 <=1 
C552: x18+x52 <=1 
C553: x18+x53-y18_53 <=1 
C554: x18+x56 <=1 
C555: x18+x57 <=1 
C556: x18+x58-y18_58 <=1 
C557: x19+x21-y19_21 <=1 
C558: x19+x22 <=1 
C559: x19+x27-y19_27 <=1 
C560: x19+x31 <=1 
C561: x19+x33 <=1 
C562: x19+x34 <=1 
C563: x19+x35-y19_35 <=1 
C564: x19+x37-y19_37 <=1 
C565: x19+x38-y19_38 <=1 
C566: x19+x39-y19_39 <=1 
C567: x19+x40 <=1 
C568: x19+x41-y19_41 <=1 
C569: x19+x42-y19_42 <=1 
C570: x19+x43-y19_43 <=1 
C571: x19+x44-y19_44 <=1 
C572: x19+x48-y19_48 <=1 
C573: x19+x49-y19_49 <=1 
C574: x19+x52 <=1 
C575: x19+x53-y19_53 <=1 
C576: x19+x55 <=1 
C577: x19+x59-y19_59 <=1 
C578: x20+x21-y20_21 <=1 
C579: x20+x22-y20_22 <=1 
C580: x20+x25-y20_25 <=1 
C581: x20+x27 <=1 
C582: x20+x30-y20_30 <=1 
C583: x20+x32 <=1 
C584: x20+x33 <=1 
C585: x20+x34 <=1 
C586: x20+x35 <=1 
C587: x20+x36-y20_36 <=1 
C588: x20+x37-y20_37 <=1 
C589: x20+x40-y20_40 <=1 
C590: x20+x41-y20_41 <=1 
C591: x20+x43 <=1 
C592: x20+x47 <=1 
C593: x20+x48 <=1 
C594: x20+x49 <=1 
C595: x20+x50-y20_50 <=1 
C596: x20+x51 <=1 
C597: x20+x55 <=1 
C598: x20+x56 <=1 
C599: x20+x59-y20_59 <=1 
C600: x21+x22 <=1 
C601: x21+x23-y21_23 <=1 
C602: x21+x24-y21_24 <=1 
C603: x21+x28-y21_28 <=1 
C604: x21+x30 <=1 
C605: x21+x31-y21_31 <=1 
C606: x21+x32-y21_32 <=1 
C607: x21+x34 <=1 
C608: x21+x36-y21_36 <=1 
C609: x21+x37 <=1 
C610: x21+x38 <=1 
C611: x21+x39 <=1 
C612: x21+x40-y21_40 <=1 
C613: x21+x41-y21_41 <=1 
C614: x21+x42 <=1 
C615: x21+x43-y21_43 <=1 
C616: x21+x45-y21_45 <=1 
C617: x21+x46-y21_46 <=1 
C618: x21+x47 <=1 
C619: x21+x48 <=1 
C620: x21+x50 <=1 
C621: x21+x51 <=1 
C622: x21+x52-y21_52 <=1 
C623: x21+x55 <=1 
C624: x21+x56-y21_56 <=1 
C625: x21+x57-y21_57 <=1 
C626: x21+x58-y21_58 <=1 
C627: x22+x23-y22_23 <=1 
C628: x22+x24 <=1 
C629: x22+x26 <=1 
C630: x22+x27 <=1 
C631: x22+x29-y22_29 <=1 
C632: x22+x30 <=1 
C633: x22+x31-y22_31 <=1 
C634: x22+x32-y22_32 <=1 
C635: x22+x33-y22_33 <=1 
C636: x22+x35 <=1 
C637: x22+x36-y22_36 <=1 
C638: x22+x38-y22_38 <=1 
C639: x22+x39 <=1 
C640: x22+x40 <=1 
C641: x22+x42-y22_42 <=1 
C642: x22+x43 <=1 
C643: x22+x47-y22_47 <=1 
C644: x22+x49 <=1 
C645: x22+x50-y22_50 <=1 
C646: x22+x52-y22_52 <=1 
C647: x22+x55 <=1 
C648: x22+x57 <=1 
C649: x23+x24-y23_24 <=1 
C650: x23+x25-y23_25 <=1 
C651: x23+x27-y23_27 <=1 
C652: x23+x29 <=1 
C653: x23+x34-y23_34 <=1 
C654: x23+x37 <=1 
C655: x23+x38-y23_38 <=1 
C656: x23+x39 <=1 
C657: x23+x41 <=1 
C658: x23+x42-y23_42 <=1 
C659: x23+x45 <=1 
C660: x23+x46 <=1 
C661: x23+x47 <=1 
C662: x23+x49-y23_49 <=1 
C663: x23+x51 <=1 
C664: x23+x52-y23_52 <=1 
C665: x23+x53 <=1 
C666: x23+x56-y23_56 <=1 
C667: x23+x58 <=1 
C668: x23+x59 <=1 
C669: x24+x25-y24_25 <=1 
C670: x24+x27 <=1 
C671: x24+x28 <=1 
C672: x24+x29 <=1 
C673: x24+x32-y24_32 <=1 
C674: x24+x34 <=1 
C675: x24+x35-y24_35 <=1 
C676: x24+x36-y24_36 <=1 
C677: x24+x37-y24_37 <=1 
C678: x24+x39 <=1 
C679: x24+x40 <=1 
C680: x24+x43 <=1 
C681: x24+x46-y24_46 <=1 
C682: x24+x47 <=1 
C683: x24+x48-y24_48 <=1 
C684: x24+x49 <=1 
C685: x24+x50 <=1 
C686: x24+x53-y24_53 <=1 
C687: x24+x55-y24_55 <=1 
C688: x24+x56 <=1 
C689: x24+x57-y24_57 <=1 
C690: x25+x26-y25_26 <=1 
C691: x25+x29 <=1 
C692: x25+x31 <=1 
C693: x25+x33-y25_33 <=1 
C694: x25+x37 <=1 
C695: x25+x38 <=1 
C696: x25+x39 <=1 
C697: x25+x40 <=1 
C698: x25+x41-y25_41 <=1 
C699: x25+x42-y25_42 <=1 
C700: x25+x43 <=1 
C701: x25+x44-y25_44 <=1 
C702: x25+x45 <=1 
C703: x25+x51 <=1 
C704: x25+x53 <=1 
C705: x25+x54 <=1 
C706: x25+x55 <=1 
C707: x25+x56 <=1 
C708: x25+x58-y25_58 <=1 
C709: x25+x59 <=1 
C710: x26+x27 <=1 
C711: x26+x31-y26_31 <=1 
C712: x26+x33 <=1 
C713: x26+x34-y26_34 <=1 
C714: x26+x35 <=1 
C715: x26+x36 <=1 
C716: x26+x37 <=1 
C717: x26+x40-y26_40 <=1 
C718: x26+x42-y26_42 <=1 
C719: x26+x43-y26_43 <=1 
C720: x26+x44-y26_44 <=1 
C721: x26+x45-y26_45 <=1 
C722: x26+x46-y26_46 <=1 
C723: x26+x50-y26_50 <=1 
C724: x26+x51 <=1 
C725: x26+x55-y26_55 <=1 
C726: x26+x56-y26_56 <=1 
C727: x26+x57-y26_57 <=1 
C728: x26+x58-y26_58 <=1 
C729: x27+x28 <=1 
C730: x27+x29-y27_29 <=1 
C731: x27+x30 <=1 
C732: x27+x33 <=1 
C733: x27+x34 <=1 
C734: x27+x35 <=1 
C735: x27+x37 <=1 
C736: x27+x39-y27_39 <=1 
C737: x27+x40 <=1 
C738: x27+x41 <=1 
C739: x27+x42-y27_42 <=1 
C740: x27+x43 <=1 
C741: x27+x44 <=1 
C742: x27+x45-y27_45 <=1 
C743: x27+x47-y27_47 <=1 
C744: x27+x48 <=1 
C745: x27+x49 <=1 
C746: x27+x50 <=1 
C747: x27+x51 <=1 
C748: x27+x52 <=1 
C749: x27+x53 <=1 
C750: x27+x54 <=1 
C751: x27+x55 <=1 
C752: x27+x57 <=1 
C753: x27+x58 <=1 
C754: x27+x59 <=1 
C755: x28+x29 <=1 
C756: x28+x30-y28_30 <=1 
C757: x28+x31 <=1 
C758: x28+x32-y28_32 <=1 
C759: x28+x33-y28_33 <=1 
C760: x28+x35-y28_35 <=1 
C761: x28+x36 <=1 
C762: x28+x38 <=1 
C763: x28+x41 <=1 
C764: x28+x42-y28_42 <=1 
C765: x28+x44 <=1 
C766: x28+x45-y28_45 <=1 
C767: x28+x46 <=1 
C768: x28+x47 <=1 
C769: x28+x49 <=1 
C770: x28+x50-y28_50 <=1 
C771: x28+x52 <=1 
C772: x28+x54-y28_54 <=1 
C773: x28+x55 <=1 
C774: x28+x57-y28_57 <=1 
C775: x28+x58-y28_58 <=1 
C776: x29+x30-y29_30 <=1 
C777: x29+x31-y29_31 <=1 
C778: x29+x32 <=1 
C779: x29+x33-y29_33 <=1 
C780: x29+x34-y29_34 <=1 
C781: x29+x35 <=1 
C782: x29+x42-y29_42 <=1 
C783: x29+x43-y29_43 <=1 
C784: x29+x44 <=1 
C785: x29+x46-y29_46 <=1 
C786: x29+x47-y29_47 <=1 
C787: x29+x48-y29_48 <=1 
C788: x29+x49-y29_49 <=1 
C789: x29+x52-y29_52 <=1 
C790: x29+x53 <=1 
C791: x29+x55 <=1 
C792: x29+x56-y29_56 <=1 
C793: x29+x57-y29_57 <=1 
C794: x29+x58-y29_58 <=1 
C795: x29+x59-y29_59 <=1 
C796: x30+x36 <=1 
C797: x30+x38 <=1 
C798: x30+x39 <=1 
C799: x30+x40 <=1 
C800: x30+x44 <=1 
C801: x30+x45 <=1 
C802: x30+x46-y30_46 <=1 
C803: x30+x49-y30_49 <=1 
C804: x30+x50 <=1 
C805: x30+x51-y30_51 <=1 
C806: x30+x52-y30_52 <=1 
C807: x30+x53-y30_53 <=1 
C808: x30+x59 <=1 
C809: x31+x33-y31_33 <=1 
C810: x31+x34-y31_34 <=1 
C811: x31+x35 <=1 
C812: x31+x38 <=1 
C813: x31+x42 <=1 
C814: x31+x45-y31_45 <=1 
C815: x31+x46 <=1 
C816: x31+x47 <=1 
C817: x31+x48-y31_48 <=1 
C818: x31+x49-y31_49 <=1 
C819: x31+x50 <=1 
C820: x31+x51-y31_51 <=1 
C821: x31+x52-y31_52 <=1 
C822: x31+x53-y31_53 <=1 
C823: x31+x54 <=1 
C824: x31+x55-y31_55 <=1 
C825: x32+x34-y32_34 <=1 
C826: x32+x35 <=1 
C827: x32+x38 <=1 
C828: x32+x41-y32_41 <=1 
C829: x32+x45-y32_45 <=1 
C830: x32+x46-y32_46 <=1 
C831: x32+x47 <=1 
C832: x32+x49-y32_49 <=1 
C833: x32+x50-y32_50 <=1 
C834: x32+x54-y32_54 <=1 
C835: x32+x57 <=1 
C836: x33+x34-y33_34 <=1 
C837: x33+x35 <=1 
C838: x33+x37-y33_37 <=1 
C839: x33+x40 <=1 
C840: x33+x41-y33_41 <=1 
C841: x33+x43-y33_43 <=1 
C842: x33+x44-y33_44 <=1 
C843: x33+x46-y33_46 <=1 
C844: x33+x47-y33_47 <=1 
C845: x33+x49-y33_49 <=1 
C846: x33+x50-y33_50 <=1 
C847: x33+x53 <=1 
C848: x33+x55-y33_55 <=1 
C849: x33+x57-y33_57 <=1 
C850: x33+x58 <=1 
C851: x34+x35 <=1 
C852: x34+x37-y34_37 <=1 
C853: x34+x38-y34_38 <=1 
C854: x34+x39 <=1 
C855: x34+x40 <=1 
C856: x34+x43-y34_43 <=1 
C857: x34+x45-y34_45 <=1 
C858: x34+x46 <=1 
C859: x34+x50 <=1 
C860: x34+x51 <=1 
C861: x34+x52-y34_52 <=1 
C862: x34+x53 <=1 
C863: x34+x54-y34_54 <=1 
C864: x34+x57 <=1 
C865: x34+x58 <=1 
C866: x34+x59 <=1 
C867: x35+x36 <=1 
C868: x35+x38 <=1 
C869: x35+x39 <=1 
C870: x35+x40-y35_40 <=1 
C871: x35+x43-y35_43 <=1 
C872: x35+x44 <=1 
C873: x35+x45 <=1 
C874: x35+x47 <=1 
C875: x35+x49 <=1 
C876: x35+x50 <=1 
C877: x35+x51-y35_51 <=1 
C878: x35+x52-y35_52 <=1 
C879: x35+x53 <=1 
C880: x35+x58-y35_58 <=1 
C881: x35+x59-y35_59 <=1 
C882: x36+x37 <=1 
C883: x36+x42 <=1 
C884: x36+x43 <=1 
C885: x36+x44-y36_44 <=1 
C886: x36+x45 <=1 
C887: x36+x47-y36_47 <=1 
C888: x36+x49 <=1 
C889: x36+x51 <=1 
C890: x36+x53-y36_53 <=1 
C891: x36+x55-y36_55 <=1 
C892: x36+x56 <=1 
C893: x36+x58-y36_58 <=1 
C894: x37+x40 <=1 
C895: x37+x41-y37_41 <=1 
C896: x37+x43-y37_43 <=1 
C897: x37+x44 <=1 
C898: x37+x46 <=1 
C899: x37+x47-y37_47 <=1 
C900: x37+x48-y37_48 <=1 
C901: x37+x49-y37_49 <=1 
C902: x37+x51 <=1 
C903: x37+x52-y37_52 <=1 
C904: x37+x55 <=1 
C905: x37+x56 <=1 
C906: x37+x58 <=1 
C907: x37+x59-y37_59 <=1 
C908: x38+x39 <=1 
C909: x38+x40-y38_40 <=1 
C910: x38+x41 <=1 
C911: x38+x44-y38_44 <=1 
C912: x38+x45-y38_45 <=1 
C913: x38+x46-y38_46 <=1 
C914: x38+x47-y38_47 <=1 
C915: x38+x48-y38_48 <=1 
C916: x38+x49-y38_49 <=1 
C917: x38+x50-y38_50 <=1 
C918: x38+x51-y38_51 <=1 
C919: x38+x53 <=1 
C920: x38+x56 <=1 
C921: x38+x58 <=1 
C922: x38+x59 <=1 
C923: x39+x41 <=1 
C924: x39+x43 <=1 
C925: x39+x44-y39_44 <=1 
C926: x39+x45 <=1 
C927: x39+x46-y39_46 <=1 
C928: x39+x47 <=1 
C929: x39+x49-y39_49 <=1 
C930: x39+x50 <=1 
C931: x39+x51 <=1 
C932: x39+x58-y39_58 <=1 
C933: x39+x59-y39_59 <=1 
C934: x40+x43-y40_43 <=1 
C935: x40+x46 <=1 
C936: x40+x49-y40_49 <=1 
C937: x40+x50 <=1 
C938: x40+x51-y40_51 <=1 
C939: x40+x53-y40_53 <=1 
C940: x40+x54 <=1 
C941: x40+x55 <=1 
C942: x40+x58-y40_58 <=1 
C943: x40+x59-y40_59 <=1 
C944: x41+x44 <=1 
C945: x41+x45 <=1 
C946: x41+x47-y41_47 <=1 
C947: x41+x48-y41_48 <=1 
C948: x41+x51 <=1 
C949: x41+x52 <=1 
C950: x41+x56-y41_56 <=1 
C951: x41+x57-y41_57 <=1 
C952: x42+x44-y42_44 <=1 
C953: x42+x45-y42_45 <=1 
C954: x42+x47-y42_47 <=1 
C955: x42+x48 <=1 
C956: x42+x50-y42_50 <=1 
C957: x42+x52-y42_52 <=1 
C958: x42+x53 <=1 
C959: x42+x54-y42_54 <=1 
C960: x42+x56 <=1 
C961: x42+x57 <=1 
C962: x42+x58-y42_58 <=1 
C963: x42+x59-y42_59 <=1 
C964: x43+x44-y43_44 <=1 
C965: x43+x45 <=1 
C966: x43+x47 <=1 
C967: x43+x48-y43_48 <=1 
C968: x43+x49 <=1 
C969: x43+x53 <=1 
C970: x43+x54-y43_54 <=1 
C971: x43+x55-y43_55 <=1 
C972: x43+x56 <=1 
C973: x43+x57-y43_57 <=1 
C974: x43+x59-y43_59 <=1 
C975: x44+x46-y44_46 <=1 
C976: x44+x48-y44_48 <=1 
C977: x44+x49-y44_49 <=1 
C978: x44+x52-y44_52 <=1 
C979: x44+x55 <=1 
C980: x44+x56-y44_56 <=1 
C981: x44+x57-y44_57 <=1 
C982: x44+x59-y44_59 <=1 
C983: x45+x48 <=1 
C984: x45+x49-y45_49 <=1 
C985: x45+x50-y45_50 <=1 
C986: x45+x52-y45_52 <=1 
C987: x45+x53-y45_53 <=1 
C988: x45+x54-y45_54 <=1 
C989: x45+x56-y45_56 <=1 
C990: x45+x59-y45_59 <=1 
C991: x46+x47 <=1 
C992: x46+x48 <=1 
C993: x46+x51-y46_51 <=1 
C994: x46+x53-y46_53 <=1 
C995: x46+x54 <=1 
C996: x46+x57-y46_57 <=1 
C997: x47+x49 <=1 
C998: x47+x50 <=1 
C999: x47+x53 <=1 
C1000: x48+x51 <=1 
C1001: x48+x52-y48_52 <=1 
C1002: x48+x54-y48_54 <=1 
C1003: x48+x55-y48_55 <=1 
C1004: x48+x57 <=1 
C1005: x48+x58-y48_58 <=1 
C1006: x48+x59-y48_59 <=1 
C1007: x49+x50 <=1 
C1008: x49+x51-y49_51 <=1 
C1009: x49+x52-y49_52 <=1 
C1010: x49+x53-y49_53 <=1 
C1011: x49+x56-y49_56 <=1 
C1012: x49+x57-y49_57 <=1 
C1013: x50+x51 <=1 
C1014: x50+x52-y50_52 <=1 
C1015: x50+x53 <=1 
C1016: x50+x55-y50_55 <=1 
C1017: x50+x57-y50_57 <=1 
C1018: x50+x59-y50_59 <=1 
C1019: x51+x53-y51_53 <=1 
C1020: x51+x54 <=1 
C1021: x51+x55 <=1 
C1022: x51+x56 <=1 
C1023: x51+x57 <=1 
C1024: x51+x59 <=1 
C1025: x52+x53-y52_53 <=1 
C1026: x52+x54 <=1 
C1027: x52+x55-y52_55 <=1 
C1028: x52+x56 <=1 
C1029: x52+x57 <=1 
C1030: x53+x54-y53_54 <=1 
C1031: x53+x55-y53_55 <=1 
C1032: x53+x56-y53_56 <=1 
C1033: x53+x57-y53_57 <=1 
C1034: x54+x55 <=1 
C1035: x54+x57 <=1 
C1036: x54+x58-y54_58 <=1 
C1037: x55+x56 <=1 
C1038: x55+x59 <=1 
C1039: x56+x58 <=1 
C1040: x56+x59 <=1 
C1041: x58+x59-y58_59 <=1 

binary
x0
x1
x2
x3
x4
x5
x6
x7
x8
x9
x10
x11
x12
x13
x14
x15
x16
x17
x18
x19
x20
x21
x22
x23
x24
x25
x26
x27
x28
x29
x30
x31
x32
x33
x34
x35
x36
x37
x38
x39
x40
x41
x42
x43
x44
x45
x46
x47
x48
x49
x50
x51
x52
x53
x54
x55
x56
x57
x58
x59
