problem_generation/data/GISP/train/er_n=60_m=1041_p=0.60_SET2_setparam=100.00_alpha=0.50_420.sol
objective value:                                 1267
x2                                                  1 	(obj:100)
x11                                                 1 	(obj:100)
x21                                                 1 	(obj:100)
x24                                                 1 	(obj:100)
x26                                                 1 	(obj:100)
x31                                                 1 	(obj:100)
x32                                                 1 	(obj:100)
x44                                                 1 	(obj:100)
x45                                                 1 	(obj:100)
x52                                                 1 	(obj:100)
x53                                                 1 	(obj:100)
x58                                                 1 	(obj:100)
x59                                                 1 	(obj:100)
y2_32                                               1 	(obj:-1)
y2_59                                               1 	(obj:-1)
y21_32                                              1 	(obj:-1)
y2_45                                               1 	(obj:-1)
y21_45                                              1 	(obj:-1)
y21_31                                              1 	(obj:-1)
y31_53                                              1 	(obj:-1)
y24_32                                              1 	(obj:-1)
y32_45                                              1 	(obj:-1)
y31_52                                              1 	(obj:-1)
y45_53                                              1 	(obj:-1)
y11_32                                              1 	(obj:-1)
y11_45                                              1 	(obj:-1)
y45_52                                              1 	(obj:-1)
y2_58                                               1 	(obj:-1)
y21_58                                              1 	(obj:-1)
y44_59                                              1 	(obj:-1)
y21_52                                              1 	(obj:-1)
y24_53                                              1 	(obj:-1)
y21_24                                              1 	(obj:-1)
y58_59                                              1 	(obj:-1)
y11_58                                              1 	(obj:-1)
y31_45                                              1 	(obj:-1)
y11_44                                              1 	(obj:-1)
y11_52                                              1 	(obj:-1)
y52_53                                              1 	(obj:-1)
y45_59                                              1 	(obj:-1)
y26_45                                              1 	(obj:-1)
y26_31                                              1 	(obj:-1)
y26_58                                              1 	(obj:-1)
y11_24                                              1 	(obj:-1)
y26_44                                              1 	(obj:-1)
y44_52                                              1 	(obj:-1)
